NAME /Users/henri/Research/solvers/instances/idol-instances/robust/collection/spp_dkp_Lefebvre_et_al_2026/shortest_path_5_10/uncertainty_sets/discrete_knapsack
ROWS
 N  OBJ
 L  primal_lower
COLUMNS
    MARKER    'MARKER'                 'INTORG'
    y[0,2]     OBJ        0
    y[0,2]     primal_lower -4.58
    y[0,3]     OBJ        0
    y[0,3]     primal_lower -0.15
    y[0,4]     OBJ        0
    y[0,4]     primal_lower -1.17
    y[1,2]     OBJ        0
    y[1,2]     primal_lower -3.44
    y[1,3]     OBJ        0
    y[1,3]     primal_lower -0.55
    y[2,0]     OBJ        0
    y[2,0]     primal_lower -3.45
    y[2,1]     OBJ        0
    y[2,1]     primal_lower -0.3
    y[2,3]     OBJ        0
    y[2,3]     primal_lower -5.34
    y[2,4]     OBJ        0
    y[2,4]     primal_lower -5.45
    y[3,0]     OBJ        0
    y[3,0]     primal_lower -2.9
    y[3,1]     OBJ        0
    y[3,1]     primal_lower -3.54
    y[3,2]     OBJ        0
    y[3,2]     primal_lower -4.25
    y[3,4]     OBJ        0
    y[3,4]     primal_lower -4.26
    y[4,0]     OBJ        0
    y[4,0]     primal_lower -2.32
    y[4,2]     OBJ        0
    y[4,2]     primal_lower -4.28
    y[4,3]     OBJ        0
    y[4,3]     primal_lower -2.35
    u[0,2]     OBJ        0
    u[0,2]     primal_lower 25
    u[0,3]     OBJ        0
    u[0,3]     primal_lower 39
    u[0,4]     OBJ        0
    u[0,4]     primal_lower 77
    u[1,2]     OBJ        0
    u[1,2]     primal_lower 60
    u[1,3]     OBJ        0
    u[1,3]     primal_lower 15
    u[2,0]     OBJ        0
    u[2,0]     primal_lower 85
    u[2,1]     OBJ        0
    u[2,1]     primal_lower 72
    u[2,3]     OBJ        0
    u[2,3]     primal_lower 89
    u[2,4]     OBJ        0
    u[2,4]     primal_lower 69
    u[3,0]     OBJ        0
    u[3,0]     primal_lower 23
    u[3,1]     OBJ        0
    u[3,1]     primal_lower 51
    u[3,2]     OBJ        0
    u[3,2]     primal_lower 18
    u[3,4]     OBJ        0
    u[3,4]     primal_lower 42
    u[4,0]     OBJ        0
    u[4,0]     primal_lower 11
    u[4,2]     OBJ        0
    u[4,2]     primal_lower 37
    u[4,3]     OBJ        0
    u[4,3]     primal_lower 9
    MARKER    'MARKER'                 'INTEND'
RHS
    RHS       primal_lower 89
BOUNDS
 LI BND       y[0,2]     0
 UI BND       y[0,2]     1
 LI BND       y[0,3]     0
 UI BND       y[0,3]     1
 LI BND       y[0,4]     0
 UI BND       y[0,4]     1
 LI BND       y[1,2]     0
 UI BND       y[1,2]     1
 LI BND       y[1,3]     0
 UI BND       y[1,3]     1
 LI BND       y[2,0]     0
 UI BND       y[2,0]     1
 LI BND       y[2,1]     0
 UI BND       y[2,1]     1
 LI BND       y[2,3]     0
 UI BND       y[2,3]     1
 LI BND       y[2,4]     0
 UI BND       y[2,4]     1
 LI BND       y[3,0]     0
 UI BND       y[3,0]     1
 LI BND       y[3,1]     0
 UI BND       y[3,1]     1
 LI BND       y[3,2]     0
 UI BND       y[3,2]     1
 LI BND       y[3,4]     0
 UI BND       y[3,4]     1
 LI BND       y[4,0]     0
 UI BND       y[4,0]     1
 LI BND       y[4,2]     0
 UI BND       y[4,2]     1
 LI BND       y[4,3]     0
 UI BND       y[4,3]     1
 LI BND       u[0,2]     0
 UI BND       u[0,2]     1
 LI BND       u[0,3]     0
 UI BND       u[0,3]     1
 LI BND       u[0,4]     0
 UI BND       u[0,4]     1
 LI BND       u[1,2]     0
 UI BND       u[1,2]     1
 LI BND       u[1,3]     0
 UI BND       u[1,3]     1
 LI BND       u[2,0]     0
 UI BND       u[2,0]     1
 LI BND       u[2,1]     0
 UI BND       u[2,1]     1
 LI BND       u[2,3]     0
 UI BND       u[2,3]     1
 LI BND       u[2,4]     0
 UI BND       u[2,4]     1
 LI BND       u[3,0]     0
 UI BND       u[3,0]     1
 LI BND       u[3,1]     0
 UI BND       u[3,1]     1
 LI BND       u[3,2]     0
 UI BND       u[3,2]     1
 LI BND       u[3,4]     0
 UI BND       u[3,4]     1
 LI BND       u[4,0]     0
 UI BND       u[4,0]     1
 LI BND       u[4,2]     0
 UI BND       u[4,2]     1
 LI BND       u[4,3]     0
 UI BND       u[4,3]     1
ENDATA
